50
    37    57    32    60    67    52    39    33    84    67    87     9    30    84     2    16    42     3    51    47    42    35    43    61    48    10    25    82    66    73    88   100    92    84    61    71    15    18    14    16    12    68    58    21    52    40    46    39    95    57
     7     9     6    10     5     4     9     1     8    10     5     1     8     5     2     3     3     1     6     7     9     5     8     4     9    10     2     5     3     1     1     9     8     1     3     7     9     4     8     8     6     2     6     1     9     9     2     5     4     6
   428     0   905   713   998     0   166   522   203  1189    28   988   748  1037  1091     0   992     0   710   206  1105   588     0     0   709   161   882   219   172     0   671     0   684   874    72   367   686   791     0     0   807   363     0     0   295     0     0   861     0   801
